results/res_prop_muc/res_Cimatti_mathsat_cores/QF_RDL/fischer3-mutex-3.smt
(benchmark fischer3_mutex_3.smt
  :source {
Source unknown
This benchmark was automatically translated into SMT-LIB format from
CVC format using CVC Lite
}
  :status unsat
:category { industrial }
:difficulty { 0 }
  :logic QF_RDL
  :extrafuns ((cvclZero Real))
  :extrasorts (ANY)
  :extrapreds ((x_0))
  :extrapreds ((x_1))
  :extrapreds ((x_2))
  :extrapreds ((x_3))
  :extrapreds ((x_4))
  :extrapreds ((x_5))
  :extrafuns ((x_6 Real))
  :extrafuns ((x_7 Real))
  :extrafuns ((x_8 Real))
  :extrafuns ((x_9 Real))
  :extrafuns ((x_10 Real))
  :extrapreds ((x_11))
  :extrapreds ((x_12))
  :extrafuns ((x_13 Real))
  :extrapreds ((x_14))
  :extrapreds ((x_15))
  :extrapreds ((x_16))
  :extrapreds ((x_17))
  :extrafuns ((x_18 Real))
  :extrafuns ((x_19 Real))
  :extrafuns ((x_20 Real))
  :extrafuns ((x_21 Real))
  :extrafuns ((x_22 Real))
  :extrafuns ((x_23 Real))
  :extrafuns ((x_24 Real))
  :extrapreds ((x_25))
  :extrapreds ((x_26))
  :extrafuns ((x_27 Real))
  :extrapreds ((x_28))
  :extrapreds ((x_29))
  :extrapreds ((x_30))
  :extrapreds ((x_31))
  :extrafuns ((x_32 Real))
  :extrafuns ((x_33 Real))
  :extrafuns ((x_34 Real))
  :extrafuns ((x_35 Real))
  :extrafuns ((x_36 Real))
  :extrafuns ((x_37 Real))
  :extrafuns ((x_38 Real))
  :extrapreds ((x_39))
  :extrapreds ((x_40))
  :extrafuns ((x_41 Real))
  :extrapreds ((x_42))
  :extrapreds ((x_43))
  :extrapreds ((x_44))
  :extrapreds ((x_45))
  :extrafuns ((x_46 Real))
  :extrafuns ((x_47 Real))
  :extrafuns ((x_48 Real))
  :extrafuns ((x_49 Real))
  :extrafuns ((x_50 Real))
  :extrafuns ((x_51 Real))
  :formula
(flet ($cvcl_12 (not x_39)) (flet ($cvcl_13 (not x_40)) (flet ($cvcl_14 (and $cvcl_12 $cvcl_13)) (flet ($cvcl_45 (not x_42)) (flet ($cvcl_46 (not x_43)) (flet ($cvcl_47 (and $cvcl_45 $cvcl_46)) (flet ($cvcl_32 (not x_44)) (flet ($cvcl_33 (not x_45)) (flet ($cvcl_35 (and $cvcl_32 $cvcl_33)) (flet ($cvcl_17 (and (iff x_42 x_28) (iff x_43 x_29))) (flet ($cvcl_42 (not x_28)) (flet ($cvcl_41 (not x_29)) (flet ($cvcl_38 (and $cvcl_42 $cvcl_41)) (flet ($cvcl_7 (and (iff x_39 x_25) (iff x_40 x_26))) (flet ($cvcl_28 (not x_30)) (flet ($cvcl_26 (not x_31)) (flet ($cvcl_21 (and $cvcl_28 $cvcl_26)) (flet ($cvcl_43 (and $cvcl_42 x_29)) (flet ($cvcl_15 (and (iff x_44 x_30) (iff x_45 x_31))) (flet ($cvcl_30 (and $cvcl_28 x_31)) (flet ($cvcl_9 (not x_25)) (flet ($cvcl_8 (not x_26)) (flet ($cvcl_3 (and $cvcl_9 $cvcl_8)) (flet ($cvcl_10 (and $cvcl_9 x_26)) (flet ($cvcl_62 (and (iff x_28 x_14) (iff x_29 x_15))) (flet ($cvcl_83 (not x_14)) (flet ($cvcl_82 (not x_15)) (flet ($cvcl_79 (and $cvcl_83 $cvcl_82)) (flet ($cvcl_55 (and (iff x_25 x_11) (iff x_26 x_12))) (flet ($cvcl_73 (not x_16)) (flet ($cvcl_71 (not x_17)) (flet ($cvcl_66 (and $cvcl_73 $cvcl_71)) (flet ($cvcl_84 (and $cvcl_83 x_15)) (flet ($cvcl_60 (and (iff x_30 x_16) (iff x_31 x_17))) (flet ($cvcl_75 (and $cvcl_73 x_17)) (flet ($cvcl_57 (not x_11)) (flet ($cvcl_56 (not x_12)) (flet ($cvcl_51 (and $cvcl_57 $cvcl_56)) (flet ($cvcl_58 (and $cvcl_57 x_12)) (flet ($cvcl_103 (and (iff x_14 x_4) (iff x_15 x_5))) (flet ($cvcl_124 (not x_4)) (flet ($cvcl_123 (not x_5)) (flet ($cvcl_120 (and $cvcl_124 $cvcl_123)) (flet ($cvcl_96 (and (iff x_11 x_0) (iff x_12 x_1))) (flet ($cvcl_114 (not x_2)) (flet ($cvcl_112 (not x_3)) (flet ($cvcl_106 (and $cvcl_114 $cvcl_112)) (flet ($cvcl_125 (and $cvcl_124 x_5)) (flet ($cvcl_101 (and (iff x_16 x_2) (iff x_17 x_3))) (flet ($cvcl_116 (and $cvcl_114 x_3)) (flet ($cvcl_98 (not x_0)) (flet ($cvcl_97 (not x_1)) (flet ($cvcl_91 (and $cvcl_98 $cvcl_97)) (flet ($cvcl_99 (and $cvcl_98 x_1)) (flet ($cvcl_89 (< (- cvclZero x_6) 0)) (flet ($cvcl_88 (< (- cvclZero x_7) 0)) (flet ($cvcl_87 (< (- cvclZero x_8) 0)) (flet ($cvcl_92 (= (- x_9 cvclZero) 0)) (flet ($cvcl_0 (< (- x_32 x_33) 0)) (flet ($cvcl_1 (if_then_else $cvcl_0 (< (- x_32 x_34) 0) (< (- x_33 x_34) 0))) (flet ($cvcl_37 (= (- x_48 x_34) 0)) (flet ($cvcl_16 (= (- x_47 x_33) 0)) (flet ($cvcl_18 (= (- x_46 x_32) 0)) (flet ($cvcl_2 (= (- x_41 x_27) 0)) (flet ($cvcl_19 (= (- x_38 cvclZero) 0)) (flet ($cvcl_4 (= (- x_36 x_34) 0)) (flet ($cvcl_5 (= (- x_27 cvclZero) 0)) (flet ($cvcl_6 (< (- x_36 x_48) 0)) (flet ($cvcl_20 (= (- x_38 cvclZero) 1)) (flet ($cvcl_23 (not $cvcl_5)) (flet ($cvcl_25 (= (- x_38 cvclZero) 2)) (flet ($cvcl_127 (= (- x_41 cvclZero) 1)) (flet ($cvcl_27 (= (- x_38 cvclZero) 3)) (flet ($cvcl_11 (= (- x_27 cvclZero) 1)) (flet ($cvcl_29 (= (- x_38 cvclZero) 4)) (flet ($cvcl_130 (not $cvcl_11)) (flet ($cvcl_34 (= (- x_38 cvclZero) 5)) (flet ($cvcl_36 (= (- x_41 cvclZero) 0)) (flet ($cvcl_22 (= (- x_36 x_33) 0)) (flet ($cvcl_24 (< (- x_36 x_47) 0)) (flet ($cvcl_128 (= (- x_41 cvclZero) 2)) (flet ($cvcl_31 (= (- x_27 cvclZero) 2)) (flet ($cvcl_131 (not $cvcl_31)) (flet ($cvcl_39 (= (- x_36 x_32) 0)) (flet ($cvcl_40 (< (- x_36 x_46) 0)) (flet ($cvcl_129 (= (- x_41 cvclZero) 3)) (flet ($cvcl_44 (= (- x_27 cvclZero) 3)) (flet ($cvcl_132 (not $cvcl_44)) (flet ($cvcl_48 (< (- x_18 x_19) 0)) (flet ($cvcl_49 (if_then_else $cvcl_48 (< (- x_18 x_20) 0) (< (- x_19 x_20) 0))) (flet ($cvcl_78 (= (- x_34 x_20) 0)) (flet ($cvcl_61 (= (- x_33 x_19) 0)) (flet ($cvcl_63 (= (- x_32 x_18) 0)) (flet ($cvcl_50 (= (- x_27 x_13) 0)) (flet ($cvcl_64 (= (- x_24 cvclZero) 0)) (flet ($cvcl_52 (= (- x_22 x_20) 0)) (flet ($cvcl_53 (= (- x_13 cvclZero) 0)) (flet ($cvcl_54 (< (- x_22 x_34) 0)) (flet ($cvcl_65 (= (- x_24 cvclZero) 1)) (flet ($cvcl_68 (not $cvcl_53)) (flet ($cvcl_70 (= (- x_24 cvclZero) 2)) (flet ($cvcl_72 (= (- x_24 cvclZero) 3)) (flet ($cvcl_59 (= (- x_13 cvclZero) 1)) (flet ($cvcl_74 (= (- x_24 cvclZero) 4)) (flet ($cvcl_133 (not $cvcl_59)) (flet ($cvcl_77 (= (- x_24 cvclZero) 5)) (flet ($cvcl_67 (= (- x_22 x_19) 0)) (flet ($cvcl_69 (< (- x_22 x_33) 0)) (flet ($cvcl_76 (= (- x_13 cvclZero) 2)) (flet ($cvcl_134 (not $cvcl_76)) (flet ($cvcl_80 (= (- x_22 x_18) 0)) (flet ($cvcl_81 (< (- x_22 x_32) 0)) (flet ($cvcl_85 (= (- x_13 cvclZero) 3)) (flet ($cvcl_135 (not $cvcl_85)) (flet ($cvcl_86 (< (- x_8 x_7) 0)) (flet ($cvcl_90 (if_then_else $cvcl_86 (< (- x_8 x_6) 0) (< (- x_7 x_6) 0))) (flet ($cvcl_119 (= (- x_20 x_6) 0)) (flet ($cvcl_102 (= (- x_19 x_7) 0)) (flet ($cvcl_104 (= (- x_18 x_8) 0)) (flet ($cvcl_93 (= (- x_13 x_9) 0)) (flet ($cvcl_105 (= (- x_10 cvclZero) 0)) (flet ($cvcl_94 (= (- cvclZero x_6) 0)) (flet ($cvcl_95 (< (- cvclZero x_20) 0)) (flet ($cvcl_107 (= (- x_10 cvclZero) 1)) (flet ($cvcl_109 (not $cvcl_92)) (flet ($cvcl_111 (= (- x_10 cvclZero) 2)) (flet ($cvcl_113 (= (- x_10 cvclZero) 3)) (flet ($cvcl_100 (= (- x_9 cvclZero) 1)) (flet ($cvcl_115 (= (- x_10 cvclZero) 4)) (flet ($cvcl_136 (not $cvcl_100)) (flet ($cvcl_118 (= (- x_10 cvclZero) 5)) (flet ($cvcl_108 (= (- cvclZero x_7) 0)) (flet ($cvcl_110 (< (- cvclZero x_19) 0)) (flet ($cvcl_117 (= (- x_9 cvclZero) 2)) (flet ($cvcl_137 (not $cvcl_117)) (flet ($cvcl_121 (= (- cvclZero x_8) 0)) (flet ($cvcl_122 (< (- cvclZero x_18) 0)) (flet ($cvcl_126 (= (- x_9 cvclZero) 3)) (flet ($cvcl_138 (not $cvcl_126)) (and (and (and (and (and (and (and (and (and (and (and (and (and (and (and (and (and (and (not (< (- x_9 cvclZero) 0)) (<= (- x_9 cvclZero) 3)) (not (< (- x_13 cvclZero) 0))) (<= (- x_13 cvclZero) 3)) (not (< (- x_27 cvclZero) 0))) (<= (- x_27 cvclZero) 3)) (not (< (- x_41 cvclZero) 0))) (<= (- x_41 cvclZero) 3)) $cvcl_91) $cvcl_106) $cvcl_120) $cvcl_89) $cvcl_88) $cvcl_87) $cvcl_92) (or (and (and (and (and (and (and (and (and (and (= (- x_49 cvclZero) 0) (if_then_else $cvcl_1 (if_then_else $cvcl_0 (< (- x_36 x_32) 0) (< (- x_36 x_33) 0)) (< (- x_36 x_34) 0))) (if_then_else $cvcl_1 (if_then_else $cvcl_0 (= (- x_50 x_32) 0) (= (- x_50 x_33) 0)) (= (- x_50 x_34) 0))) $cvcl_7) $cvcl_15) $cvcl_17) $cvcl_37) $cvcl_16) $cvcl_18) $cvcl_2)  (and (and (= (- x_49 cvclZero) 1) (or (or (and (and (and (and (and (= (- x_51 cvclZero) 1) (or (or (or (or (or (and (and (and (and (and (and (and (and $cvcl_19 $cvcl_3) $cvcl_4) $cvcl_5) x_39) $cvcl_13) $cvcl_6) (<= (- x_48 x_36) 2)) $cvcl_2)  (and (and (and (and (and (and $cvcl_20 $cvcl_3) $cvcl_4) $cvcl_23) $cvcl_6) $cvcl_2) $cvcl_7) )  (and (and (and (and (and (and (and $cvcl_25 x_25) $cvcl_8) $cvcl_4) $cvcl_12) x_40) $cvcl_127) (<= (- x_36 x_48) (~ 4))) )  (and (and (and (and (and (and (and $cvcl_27 $cvcl_10) $cvcl_4) $cvcl_11) x_39) x_40) $cvcl_6) $cvcl_2) )  (and (and (and (and (and (and $cvcl_29 $cvcl_10) $cvcl_4) $cvcl_130) $cvcl_14) $cvcl_6) $cvcl_2) )  (and (and (and (and (and (and $cvcl_34 x_25) x_26) $cvcl_4) $cvcl_14) $cvcl_36) $cvcl_6) )) $cvcl_15) $cvcl_16) $cvcl_17) $cvcl_18)  (and (and (and (and (and (= (- x_51 cvclZero) 2) (or (or (or (or (or (and (and (and (and (and (and (and (and $cvcl_19 $cvcl_21) $cvcl_22) $cvcl_5) x_44) $cvcl_33) $cvcl_24) (<= (- x_47 x_36) 2)) $cvcl_2)  (and (and (and (and (and (and $cvcl_20 $cvcl_21) $cvcl_22) $cvcl_23) $cvcl_24) $cvcl_2) $cvcl_15) )  (and (and (and (and (and (and (and $cvcl_25 x_30) $cvcl_26) $cvcl_22) $cvcl_32) x_45) $cvcl_128) (<= (- x_36 x_47) (~ 4))) )  (and (and (and (and (and (and (and $cvcl_27 $cvcl_30) $cvcl_22) $cvcl_31) x_44) x_45) $cvcl_24) $cvcl_2) )  (and (and (and (and (and (and $cvcl_29 $cvcl_30) $cvcl_22) $cvcl_131) $cvcl_35) $cvcl_24) $cvcl_2) )  (and (and (and (and (and (and $cvcl_34 x_30) x_31) $cvcl_22) $cvcl_35) $cvcl_36) $cvcl_24) )) $cvcl_7) $cvcl_37) $cvcl_17) $cvcl_18) )  (and (and (and (and (and (= (- x_51 cvclZero) 3) (or (or (or (or (or (and (and (and (and (and (and (and (and $cvcl_19 $cvcl_38) $cvcl_39) $cvcl_5) x_42) $cvcl_46) $cvcl_40) (<= (- x_46 x_36) 2)) $cvcl_2)  (and (and (and (and (and (and $cvcl_20 $cvcl_38) $cvcl_39) $cvcl_23) $cvcl_40) $cvcl_2) $cvcl_17) )  (and (and (and (and (and (and (and $cvcl_25 x_28) $cvcl_41) $cvcl_39) $cvcl_45) x_43) $cvcl_129) (<= (- x_36 x_46) (~ 4))) )  (and (and (and (and (and (and (and $cvcl_27 $cvcl_43) $cvcl_39) $cvcl_44) x_42) x_43) $cvcl_40) $cvcl_2) )  (and (and (and (and (and (and $cvcl_29 $cvcl_43) $cvcl_39) $cvcl_132) $cvcl_47) $cvcl_40) $cvcl_2) )  (and (and (and (and (and (and $cvcl_34 x_28) x_29) $cvcl_39) $cvcl_47) $cvcl_36) $cvcl_40) )) $cvcl_7) $cvcl_37) $cvcl_15) $cvcl_16) )) (= (- x_50 x_36) 0)) )) (or (and (and (and (and (and (and (and (and (and (= (- x_35 cvclZero) 0) (if_then_else $cvcl_49 (if_then_else $cvcl_48 (< (- x_22 x_18) 0) (< (- x_22 x_19) 0)) (< (- x_22 x_20) 0))) (if_then_else $cvcl_49 (if_then_else $cvcl_48 (= (- x_36 x_18) 0) (= (- x_36 x_19) 0)) (= (- x_36 x_20) 0))) $cvcl_55) $cvcl_60) $cvcl_62) $cvcl_78) $cvcl_61) $cvcl_63) $cvcl_50)  (and (and (= (- x_35 cvclZero) 1) (or (or (and (and (and (and (and (= (- x_37 cvclZero) 1) (or (or (or (or (or (and (and (and (and (and (and (and (and $cvcl_64 $cvcl_51) $cvcl_52) $cvcl_53) x_25) $cvcl_8) $cvcl_54) (<= (- x_34 x_22) 2)) $cvcl_50)  (and (and (and (and (and (and $cvcl_65 $cvcl_51) $cvcl_52) $cvcl_68) $cvcl_54) $cvcl_50) $cvcl_55) )  (and (and (and (and (and (and (and $cvcl_70 x_11) $cvcl_56) $cvcl_52) $cvcl_9) x_26) $cvcl_11) (<= (- x_22 x_34) (~ 4))) )  (and (and (and (and (and (and (and $cvcl_72 $cvcl_58) $cvcl_52) $cvcl_59) x_25) x_26) $cvcl_54) $cvcl_50) )  (and (and (and (and (and (and $cvcl_74 $cvcl_58) $cvcl_52) $cvcl_133) $cvcl_3) $cvcl_54) $cvcl_50) )  (and (and (and (and (and (and $cvcl_77 x_11) x_12) $cvcl_52) $cvcl_3) $cvcl_5) $cvcl_54) )) $cvcl_60) $cvcl_61) $cvcl_62) $cvcl_63)  (and (and (and (and (and (= (- x_37 cvclZero) 2) (or (or (or (or (or (and (and (and (and (and (and (and (and $cvcl_64 $cvcl_66) $cvcl_67) $cvcl_53) x_30) $cvcl_26) $cvcl_69) (<= (- x_33 x_22) 2)) $cvcl_50)  (and (and (and (and (and (and $cvcl_65 $cvcl_66) $cvcl_67) $cvcl_68) $cvcl_69) $cvcl_50) $cvcl_60) )  (and (and (and (and (and (and (and $cvcl_70 x_16) $cvcl_71) $cvcl_67) $cvcl_28) x_31) $cvcl_31) (<= (- x_22 x_33) (~ 4))) )  (and (and (and (and (and (and (and $cvcl_72 $cvcl_75) $cvcl_67) $cvcl_76) x_30) x_31) $cvcl_69) $cvcl_50) )  (and (and (and (and (and (and $cvcl_74 $cvcl_75) $cvcl_67) $cvcl_134) $cvcl_21) $cvcl_69) $cvcl_50) )  (and (and (and (and (and (and $cvcl_77 x_16) x_17) $cvcl_67) $cvcl_21) $cvcl_5) $cvcl_69) )) $cvcl_55) $cvcl_78) $cvcl_62) $cvcl_63) )  (and (and (and (and (and (= (- x_37 cvclZero) 3) (or (or (or (or (or (and (and (and (and (and (and (and (and $cvcl_64 $cvcl_79) $cvcl_80) $cvcl_53) x_28) $cvcl_41) $cvcl_81) (<= (- x_32 x_22) 2)) $cvcl_50)  (and (and (and (and (and (and $cvcl_65 $cvcl_79) $cvcl_80) $cvcl_68) $cvcl_81) $cvcl_50) $cvcl_62) )  (and (and (and (and (and (and (and $cvcl_70 x_14) $cvcl_82) $cvcl_80) $cvcl_42) x_29) $cvcl_44) (<= (- x_22 x_32) (~ 4))) )  (and (and (and (and (and (and (and $cvcl_72 $cvcl_84) $cvcl_80) $cvcl_85) x_28) x_29) $cvcl_81) $cvcl_50) )  (and (and (and (and (and (and $cvcl_74 $cvcl_84) $cvcl_80) $cvcl_135) $cvcl_38) $cvcl_81) $cvcl_50) )  (and (and (and (and (and (and $cvcl_77 x_14) x_15) $cvcl_80) $cvcl_38) $cvcl_5) $cvcl_81) )) $cvcl_55) $cvcl_78) $cvcl_60) $cvcl_61) )) (= (- x_36 x_22) 0)) )) (or (and (and (and (and (and (and (and (and (and (= (- x_21 cvclZero) 0) (if_then_else $cvcl_90 (if_then_else $cvcl_86 $cvcl_87 $cvcl_88) $cvcl_89)) (if_then_else $cvcl_90 (if_then_else $cvcl_86 (= (- x_22 x_8) 0) (= (- x_22 x_7) 0)) (= (- x_22 x_6) 0))) $cvcl_96) $cvcl_101) $cvcl_103) $cvcl_119) $cvcl_102) $cvcl_104) $cvcl_93)  (and (and (= (- x_21 cvclZero) 1) (or (or (and (and (and (and (and (= (- x_23 cvclZero) 1) (or (or (or (or (or (and (and (and (and (and (and (and (and $cvcl_105 $cvcl_91) $cvcl_94) $cvcl_92) x_11) $cvcl_56) $cvcl_95) (<= (- x_20 cvclZero) 2)) $cvcl_93)  (and (and (and (and (and (and $cvcl_107 $cvcl_91) $cvcl_94) $cvcl_109) $cvcl_95) $cvcl_93) $cvcl_96) )  (and (and (and (and (and (and (and $cvcl_111 x_0) $cvcl_97) $cvcl_94) $cvcl_57) x_12) $cvcl_59) (<= (- cvclZero x_20) (~ 4))) )  (and (and (and (and (and (and (and $cvcl_113 $cvcl_99) $cvcl_94) $cvcl_100) x_11) x_12) $cvcl_95) $cvcl_93) )  (and (and (and (and (and (and $cvcl_115 $cvcl_99) $cvcl_94) $cvcl_136) $cvcl_51) $cvcl_95) $cvcl_93) )  (and (and (and (and (and (and $cvcl_118 x_0) x_1) $cvcl_94) $cvcl_51) $cvcl_53) $cvcl_95) )) $cvcl_101) $cvcl_102) $cvcl_103) $cvcl_104)  (and (and (and (and (and (= (- x_23 cvclZero) 2) (or (or (or (or (or (and (and (and (and (and (and (and (and $cvcl_105 $cvcl_106) $cvcl_108) $cvcl_92) x_16) $cvcl_71) $cvcl_110) (<= (- x_19 cvclZero) 2)) $cvcl_93)  (and (and (and (and (and (and $cvcl_107 $cvcl_106) $cvcl_108) $cvcl_109) $cvcl_110) $cvcl_93) $cvcl_101) )  (and (and (and (and (and (and (and $cvcl_111 x_2) $cvcl_112) $cvcl_108) $cvcl_73) x_17) $cvcl_76) (<= (- cvclZero x_19) (~ 4))) )  (and (and (and (and (and (and (and $cvcl_113 $cvcl_116) $cvcl_108) $cvcl_117) x_16) x_17) $cvcl_110) $cvcl_93) )  (and (and (and (and (and (and $cvcl_115 $cvcl_116) $cvcl_108) $cvcl_137) $cvcl_66) $cvcl_110) $cvcl_93) )  (and (and (and (and (and (and $cvcl_118 x_2) x_3) $cvcl_108) $cvcl_66) $cvcl_53) $cvcl_110) )) $cvcl_96) $cvcl_119) $cvcl_103) $cvcl_104) )  (and (and (and (and (and (= (- x_23 cvclZero) 3) (or (or (or (or (or (and (and (and (and (and (and (and (and $cvcl_105 $cvcl_120) $cvcl_121) $cvcl_92) x_14) $cvcl_82) $cvcl_122) (<= (- x_18 cvclZero) 2)) $cvcl_93)  (and (and (and (and (and (and $cvcl_107 $cvcl_120) $cvcl_121) $cvcl_109) $cvcl_122) $cvcl_93) $cvcl_103) )  (and (and (and (and (and (and (and $cvcl_111 x_4) $cvcl_123) $cvcl_121) $cvcl_83) x_15) $cvcl_85) (<= (- cvclZero x_18) (~ 4))) )  (and (and (and (and (and (and (and $cvcl_113 $cvcl_125) $cvcl_121) $cvcl_126) x_14) x_15) $cvcl_122) $cvcl_93) )  (and (and (and (and (and (and $cvcl_115 $cvcl_125) $cvcl_121) $cvcl_138) $cvcl_79) $cvcl_122) $cvcl_93) )  (and (and (and (and (and (and $cvcl_118 x_4) x_5) $cvcl_121) $cvcl_79) $cvcl_53) $cvcl_122) )) $cvcl_96) $cvcl_119) $cvcl_101) $cvcl_102) )) (= (- x_22 cvclZero) 0)) )) (or (or (or (or (or (or (or (or (or (or (or (and (and x_39 x_40) (not $cvcl_127))  (and (and x_44 x_45) (not $cvcl_128)) )  (and (and x_42 x_43) (not $cvcl_129)) )  (and (and x_25 x_26) $cvcl_130) )  (and (and x_30 x_31) $cvcl_131) )  (and (and x_28 x_29) $cvcl_132) )  (and (and x_11 x_12) $cvcl_133) )  (and (and x_16 x_17) $cvcl_134) )  (and (and x_14 x_15) $cvcl_135) )  (and (and x_0 x_1) $cvcl_136) )  (and (and x_2 x_3) $cvcl_137) )  (and (and x_4 x_5) $cvcl_138) )))))))))))))))))))))))))))))))))))))))))))))))))))))))))))))))))))))))))))))))))))))))))))))))))))))))))))))))))))))))))))))))))))))))))))))
)
