results/res_prop_muc/res_Cimatti_mathsat_cores/QF_RDL/fischer3-mutex-3.smt.smt2.res
unsat
( c10
  c1000
  c1002
  c102
  c103
  c104
  c106
  c107
  c11
  c117
  c12
  c126
  c13
  c136
  c14
  c148
  c15
  c157
  c16
  c169
  c17
  c175
  c176
  c177
  c179
  c180
  c192
  c199
  c209
  c21
  c221
  c230
  c242
  c248
  c249
  c25
  c250
  c252
  c253
  c262
  c270
  c278
  c282
  c286
  c29
  c290
  c320
  c321
  c322
  c323
  c325
  c33
  c333
  c337
  c341
  c345
  c347
  c357
  c36
  c367
  c376
  c387
  c391
  c396
  c408
  c409
  c411
  c414
  c415
  c416
  c418
  c419
  c428
  c438
  c448
  c45
  c457
  c469
  c481
  c484
  c487
  c488
  c489
  c491
  c492
  c501
  c511
  c521
  c530
  c542
  c55
  c554
  c557
  c560
  c561
  c562
  c564
  c565
  c574
  c575
  c582
  c586
  c590
  c598
  c602
  c632
  c633
  c635
  c636
  c637
  c64
  c641
  c66
  c660
  c670
  c680
  c690
  c708
  c717
  c726
  c741
  c75
  c751
  c761
  c771
  c781
  c79
  c790
  c799
  c8
  c814
  c824
  c834
  c84
  c844
  c854
  c863
  c872
  c886
  c894
  c898
  c9
  c902
  c906
  c910
  c914
  c944
  c945
  c946
  c947
  c948
  c949
  c953
  c955
  c959
  c96
  c963
  c966
  c970
  c974
  c979
  c983
  c987
  c994 )
